20:48:51 | INFO    | Run started | run_id: SR_SV_RD_case2_P5_eps9999 | log file: C:\Users\Asus\Documents\GitHub\logistics-model2\internal-logistics-model2\results\SR_SV_RD\case2\SR_SV_RD_case2_P5_eps9999_2026_05_04_20_48.log
20:48:51 | INFO    | Products loaded | sheet=case2 | rows=10
20:48:52 | INFO    | Data loaded | |N|=26 |Nw|=25 |K|=1 |R|=1 |P|=5 | U=25
20:48:52 | INFO    | Big-M | time=491.0 precedence=480.0 wait=465.0 load_lb=20 load_ub=20
20:48:52 | INFO    | Set parameter Username
20:48:52 | INFO    | Set parameter LicenseID to value 2811848
20:48:52 | INFO    | Academic license - for non-commercial use only - expires 2027-04-22
20:48:52 | INFO    | Objective set | primary: min route_duration | tie-break weight on wait: 0.001
20:48:52 | INFO    | Constraint (3) added | total_wait <= 9999
20:48:52 | INFO    | Constraints (4)-(9) added | route structure
20:48:52 | INFO    | Constraints (10)-(12) added | product assignment
20:48:52 | INFO    | Constraints (13)-(15) added | route timing
20:48:52 | INFO    | Constraints (16) added | time consistency
20:48:52 | INFO    | Constraints (17)-(19) added | service times
20:48:52 | INFO    | Constraints (20)-(22) added | precedence, route closure, waiting
20:48:52 | INFO    | Constraints (23)-(27) added | load propagation
20:48:52 | INFO    | Constraints (28)-(32) added | MTZ and route ordering
20:48:52 | INFO    | Set parameter TimeLimit to value 600
20:48:52 | INFO    | Set parameter MIPGap to value 0.01
20:48:52 | INFO    | Set parameter Presolve to value 2
20:48:52 | INFO    | Set parameter LogFile to value "C:\Users\Asus\Documents\GitHub\logistics-model2\internal-logistics-model2\results\SR_SV_RD\case2\result_SR_SV_RD_case2_P5_eps9999_2026_05_04_20_48.log"
20:48:52 | INFO    | Solver configured | TimeLimit=600s | MIPGap=0.01 | gurobi_log=C:\Users\Asus\Documents\GitHub\logistics-model2\internal-logistics-model2\results\SR_SV_RD\case2\result_SR_SV_RD_case2_P5_eps9999_2026_05_04_20_48.log
20:48:52 | INFO    | Optimization starting...
20:48:52 | INFO    | Gurobi Optimizer version 12.0.0 build v12.0.0rc1 (win64 - Windows 10.0 (19045.2))
20:48:52 | INFO    | 
20:48:52 | INFO    | CPU model: 12th Gen Intel(R) Core(TM) i7-12650H, instruction set [SSE2|AVX|AVX2]
20:48:52 | INFO    | Thread count: 10 physical cores, 16 logical processors, using up to 16 threads
20:48:52 | INFO    | 
20:48:52 | INFO    | Non-default parameters:
20:48:52 | INFO    | TimeLimit  600
20:48:52 | INFO    | MIPGap  0.01
20:48:52 | INFO    | Presolve  2
20:48:52 | INFO    | 
20:48:52 | INFO    | Optimize a model with 2717 rows, 813 columns and 13589 nonzeros
20:48:52 | INFO    | Model fingerprint: 0x090bd46d
20:48:52 | INFO    | Variable types: 133 continuous, 680 integer (655 binary)
20:48:52 | INFO    | Coefficient statistics:
20:48:52 | INFO    |   Matrix range     [1e+00, 5e+02]
20:48:52 | INFO    |   Objective range  [1e-03, 1e+00]
20:48:52 | INFO    |   Bounds range     [1e+00, 3e+01]
20:48:52 | INFO    |   RHS range        [1e+00, 1e+04]
20:48:52 | INFO    | Presolve removed 2450 rows and 711 columns
20:48:52 | INFO    | Presolve time: 0.01s
20:48:52 | INFO    | Presolved: 267 rows, 102 columns, 1118 nonzeros
20:48:52 | INFO    | Variable types: 29 continuous, 73 integer (65 binary)
20:48:52 | INFO    | Root relaxation presolve removed 10 rows and 0 columns
20:48:52 | INFO    | Root relaxation presolved: 257 rows, 111 columns, 1098 nonzeros
20:48:52 | INFO    | 
20:48:52 | INFO    | 
20:48:52 | INFO    | Root relaxation: objective 1.500000e-02, 73 iterations, 0.00 seconds (0.00 work units)
20:48:52 | INFO    | 
20:48:52 | INFO    |     Nodes    |    Current Node    |     Objective Bounds      |     Work
20:48:52 | INFO    |  Expl Unexpl |  Obj  Depth IntInf | Incumbent    BestBd   Gap | It/Node Time
20:48:52 | INFO    | 
20:48:52 | INFO    |      0     0    0.01500    0   13          -    0.01500      -     -    0s
20:48:52 | INFO    | H    0     0                      79.1500000    0.01500   100%     -    0s
20:48:52 | INFO    |      0     0    0.01500    0   23   79.15000    0.01500   100%     -    0s
20:48:52 | INFO    |      0     0    0.01580    0   32   79.15000    0.01580   100%     -    0s
20:48:52 | INFO    |      0     0    0.02816    0   33   79.15000    0.02816   100%     -    0s
20:48:52 | INFO    |      0     0    0.04795    0   26   79.15000    0.04795   100%     -    0s
20:48:52 | INFO    | H    0     0                      77.1110000    0.04814   100%     -    0s
20:48:52 | INFO    |      0     0    0.04830    0   31   77.11100    0.04830   100%     -    0s
20:48:52 | INFO    |      0     0    0.05832    0   32   77.11100    0.05832   100%     -    0s
20:48:52 | INFO    |      0     0    0.06111    0   28   77.11100    0.06111   100%     -    0s
20:48:52 | INFO    |      0     0    0.06123    0   26   77.11100    0.06123   100%     -    0s
20:48:52 | INFO    | H    0     0                      74.0990000    0.06134   100%     -    0s
20:48:52 | INFO    |      0     0    0.06134    0   31   74.09900    0.06134   100%     -    0s
20:48:52 | INFO    |      0     0    0.06279    0   32   74.09900    0.06279   100%     -    0s
20:48:52 | INFO    |      0     0    0.06355    0   31   74.09900    0.06355   100%     -    0s
20:48:52 | INFO    |      0     0    0.06421    0   30   74.09900    0.06421   100%     -    0s
20:48:52 | INFO    |      0     0    0.06440    0   31   74.09900    0.06440   100%     -    0s
20:48:52 | INFO    |      0     0    0.06464    0   28   74.09900    0.06464   100%     -    0s
20:48:52 | INFO    | H    0     0                      74.0910000    0.06470   100%     -    0s
20:48:52 | INFO    |      0     0    0.06472    0   30   74.09100    0.06472   100%     -    0s
20:48:52 | INFO    |      0     0    0.06494    0   33   74.09100    0.06494   100%     -    0s
20:48:52 | INFO    |      0     0    0.06503    0   34   74.09100    0.06503   100%     -    0s
20:48:52 | INFO    |      0     0    0.06527    0   33   74.09100    0.06527   100%     -    0s
20:48:52 | INFO    | H    0     0                      72.1140000    0.06528   100%     -    0s
20:48:52 | INFO    |      0     0    0.06532    0   33   72.11400    0.06532   100%     -    0s
20:48:52 | INFO    |      0     0    0.06604    0   32   72.11400    0.06604   100%     -    0s
20:48:52 | INFO    |      0     0    0.06631    0   29   72.11400    0.06631   100%     -    0s
20:48:52 | INFO    |      0     0    0.06671    0   28   72.11400    0.06671   100%     -    0s
20:48:52 | INFO    |      0     0    0.06680    0   28   72.11400    0.06680   100%     -    0s
20:48:52 | INFO    |      0     0    0.06680    0   29   72.11400    0.06680   100%     -    0s
20:48:52 | INFO    |      0     0    0.06680    0   29   72.11400    0.06680   100%     -    0s
20:48:52 | INFO    |      0     0    0.06680    0   29   72.11400    0.06680   100%     -    0s
20:48:52 | INFO    |      0     2    0.06680    0   29   72.11400    0.06680   100%     -    0s
20:48:52 | INFO    | *  226   143              21      72.0920000    0.07967   100%  13.3    0s
20:48:52 | INFO    | H  342   171                      71.1050000    0.08534   100%  11.4    0s
20:48:52 | INFO    | H  757   161                      67.0850000    0.16500   100%   9.6    0s
20:48:52 | INFO    | 
20:48:52 | INFO    | Cutting planes:
20:48:52 | INFO    |   Learned: 9
20:48:52 | INFO    |   Gomory: 1
20:48:52 | INFO    |   Cover: 6
20:48:52 | INFO    |   Implied bound: 34
20:48:52 | INFO    |   MIR: 85
20:48:52 | INFO    |   StrongCG: 1
20:48:52 | INFO    |   Inf proof: 2
20:48:52 | INFO    |   RLT: 3
20:48:52 | INFO    |   Relax-and-lift: 14
20:48:52 | INFO    |   PSD: 1
20:48:52 | INFO    | 
20:48:52 | INFO    | Explored 1301 nodes (12119 simplex iterations) in 0.23 seconds (0.18 work units)
20:48:52 | INFO    | Thread count was 16 (of 16 available processors)
20:48:52 | INFO    | 
20:48:52 | INFO    | Solution count 8: 67.085 71.105 72.092 ... 79.15
20:48:52 | INFO    | 
20:48:52 | INFO    | Optimal solution found (tolerance 1.00e-02)
20:48:52 | INFO    | Best objective 6.708500000000e+01, best bound 6.708500000000e+01, gap 0.0000%
20:48:52 | INFO    | Solution found | route_duration=67.00 | total_wait=85.00
20:48:52 | INFO    | Objective=67.08 | runtime=0.23s | MIP Gap=0.00%
20:48:52 | INFO    | Generating Excel output | C:\Users\Asus\Documents\GitHub\logistics-model2\internal-logistics-model2\results\SR_SV_RD\case2\result_SR_SV_RD_case2_P5_eps9999_2026_05_04_20_48.xlsx
20:48:52 | INFO    | Excel output written | 12 sheets | C:\Users\Asus\Documents\GitHub\logistics-model2\internal-logistics-model2\results\SR_SV_RD\case2\result_SR_SV_RD_case2_P5_eps9999_2026_05_04_20_48.xlsx
20:48:52 | INFO    | Master Pareto updated | 8 total rows | C:\Users\Asus\Documents\GitHub\logistics-model2\internal-logistics-model2\results\master_pareto.xlsx
20:48:52 | INFO    | Run complete | run_id=SR_SV_RD_case2_P5_eps9999
